scripts/allData/IBLP-FIS/p0033-0.100000.txt
N 3
M 16
LC 0
LC 1
LC 2
LR 0
LR 1
LR 2
LR 3
LR 4
LR 5
LR 6
LR 7
LR 8
LR 9
LR 10
LR 11
LR 12
LR 13
LR 14
LR 15
LO -171.000000
LO -171.000000
LO -171.000000
OS 1
